l=6312;
a=5;
setup_costs=[|11,25,15,12,3,
|24,12,20,15,17,
|7,7,25,22,6,
|16,16,6,13,15,
|6,15,5,21,8,
|0,0,0,0,0,|];
setup_times=[|12,6,13,1,18,
|22,4,13,3,25,
|21,8,9,2,22,
|1,22,20,14,4,
|23,4,16,23,23,
|0,0,0,0,0,|];
m=2;
min_cap=[0, 0];
max_cap=[91, 32];

initState=[2, 3];
s=4;
m_a_s = [|385,947,3831,5994,
|0,0,784,6190|];
m_a_e = [|819,3111,5920,6281,
|0,0,5609,6284|];
n=50;
eligible_machine =[{1, 2}, {1, 2}, {2}, {1, 2}, {2}, {2}, {1, 2}, {1, 2}, {2}, {1, 2}, {2}, {1}, {1, 2}, {1, 2}, {2}, {1}, {1}, {1, 2}, {1, 2}, {1, 2}, {1, 2}, {1, 2}, {1}, {1}, {1, 2}, {1, 2}, {1, 2}, {1, 2}, {2}, {1, 2}, {1, 2}, {1}, {1, 2}, {1, 2}, {1, 2}, {2}, {1, 2}, {2}, {2}, {1}, {1}, {1}, {2}, {2}, {1, 2}, {1}, {1, 2}, {2}, {1, 2}, {1, 2}];
earliest_start=[1075, 555, 998, 1077, 342, 1163, 1220, 970, 523, 758, 1073, 0, 1254, 560, 749, 114, 1206, 1091, 460, 602, 1126, 70, 140, 747, 1013, 642, 255, 1105, 336, 286, 9, 904, 1020, 706, 723, 278, 953, 134, 270, 109, 66, 660, 1156, 602, 1136, 687, 353, 279, 695, 717];
latest_end=[1392, 621, 1294, 1272, 376, 1431, 1350, 1151, 577, 843, 1293, 6, 1363, 729, 874, 142, 1331, 1260, 482, 607, 1214, 276, 260, 758, 1215, 1043, 489, 1362, 428, 382, 293, 992, 1170, 720, 993, 672, 1170, 168, 302, 438, 196, 865, 1325, 659, 1276, 820, 469, 567, 874, 807];
min_time=[89, 20, 96, 73, 17, 74, 60, 71, 40, 33, 55, 5, 38, 96, 65, 15, 30, 50, 6, 3, 48, 57, 42, 7, 56, 97, 71, 81, 81, 49, 57, 18, 46, 4, 69, 91, 81, 31, 14, 98, 28, 65, 56, 35, 37, 40, 57, 63, 46, 82];
max_time=[100, 100, 100, 100, 100, 100, 100, 100, 100, 100, 100, 100, 100, 100, 100, 100, 100, 100, 100, 100, 100, 100, 100, 100, 100, 100, 100, 100, 100, 100, 100, 100, 100, 100, 100, 100, 100, 100, 100, 100, 100, 100, 100, 100, 100, 100, 100, 100, 100, 100];
size=[1, 4, 2, 3, 3, 5, 1, 2, 3, 1, 2, 2, 1, 2, 2, 3, 1, 5, 5, 4, 2, 5, 2, 2, 5, 4, 2, 3, 1, 1, 3, 2, 2, 5, 1, 2, 5, 1, 1, 2, 3, 2, 3, 3, 1, 2, 3, 1, 5, 4];
attribute=[4, 5, 2, 5, 3, 4, 2, 1, 2, 1, 2, 2, 2, 1, 5, 4, 3, 2, 4, 1, 5, 4, 4, 1, 3, 3, 5, 1, 4, 2, 1, 4, 5, 5, 4, 5, 1, 1, 3, 3, 3, 5, 1, 2, 2, 4, 4, 4, 5, 1];

upper_bound_integer_objective=6693750;
mult_factor_total_runtime=100;
mult_factor_finished_toolate=127500;
mult_factor_total_setuptimes=0;
mult_factor_total_setupcosts=51;
running_time_bound=2543;
min_duration=3;
max_duration=98;
max_setup_time=25;
max_setup_cost=25;